(set-logic HORN)


(declare-fun |<Main: void main(JayArray_java_lang_String)>_Block1_2| ( Int Int Int Int Int Int Int Int Int Int Int Int Int Int ) Bool)
(declare-fun |<Main: int addition(int,int)>_post| ( Int Int Int Int Int Int Int Int ) Bool)
(declare-fun |<Main: void main(JayArray_java_lang_String)>_Block3| ( Int Int Int Int Int Int Int Int Int Int Int Int ) Bool)
(declare-fun |<Main: void <clinit>()>_post| ( Int Int Int Int Int ) Bool)
(declare-fun |<Main: void main(JayArray_java_lang_String)>_Block4| ( Int Int Int Int Int Int Int Int Int Int Int Int ) Bool)
(declare-fun |<JayHornAssertions: void <clinit>()>_Block0| ( Int Int Int Int Int ) Bool)
(declare-fun |<Main: int addition(int,int)>_Block6| ( Int Int Int Int Int Int Int ) Bool)
(declare-fun |Assert #0: Main.java, line 23| ( ) Bool)
(declare-fun |<Main: void <clinit>()>_Block1_3| ( Int Int Int Int Int ) Bool)
(declare-fun |<Main: int addition(int,int)>_Block5_1| ( Int Int Int Int Int Int ) Bool)
(declare-fun |<Main: int addition(int,int)>_Block3_1| ( Int Int Int Int Int Int Int Int ) Bool)
(declare-fun |<Main: void main(JayArray_java_lang_String)>_Block1_1| ( Int Int Int Int Int Int Int Int Int Int Int Int Int Int Int ) Bool)
(declare-fun |<Main: int addition(int,int)>_Block0| ( Int Int Int Int Int Int Int Int ) Bool)
(declare-fun |<Main: int addition(int,int)>_Block1_1| ( Int Int Int Int Int Int Int Int Int Int ) Bool)
(declare-fun |<Main: void <clinit>()>_pre| ( Int ) Bool)
(declare-fun |<JayHornAssertions: void <clinit>()>_pre| ( Int ) Bool)
(declare-fun |<Main: int addition(int,int)>_Block6_1| ( Int Int Int Int Int Int Int Int ) Bool)
(declare-fun |<Main: void main(JayArray_java_lang_String)>_Block1_13| ( Int Int Int Int Int Int Int Int ) Bool)
(declare-fun |<Main: int addition(int,int)>_Block9_1| ( Int Int Int Int Int Int Int Int ) Bool)
(declare-fun |<Main: void main(JayArray_java_lang_String)>_Block1| ( Int Int Int Int Int Int Int Int Int Int Int Int Int Int Int Int Int Int Int Int Int Int Int ) Bool)
(declare-fun |<Main: void main(JayArray_java_lang_String)>_Block1_7| ( Int Int Int Int Int Int Int Int Int Int ) Bool)
(declare-fun |<JayHornAssertions: void <clinit>()>_Block1_1| ( Int Int ) Bool)
(declare-fun |<Main: int addition(int,int)>_Block9| ( Int Int Int Int Int Int Int Int ) Bool)
(declare-fun |<Main: void main(JayArray_java_lang_String)>_Block1_16| ( Int Int Int Int Int Int Int Int Int Int Int Int ) Bool)
(declare-fun |<Main: void main(JayArray_java_lang_String)>_Block1_6| ( Int Int Int Int Int Int Int Int Int Int ) Bool)
(declare-fun |<Main: int addition(int,int)>_Block5_2| ( Int Int Int Int Int Int ) Bool)
(declare-fun |<Main: void main(JayArray_java_lang_String)>_Block1_11| ( Int Int Int Int Int Int Int Int Int Int Int ) Bool)
(declare-fun |<JayHornAssertions: void <clinit>()>_Block1| ( Int Int ) Bool)
(declare-fun |<JayHornAssertions: void <clinit>()>_Block1_2| ( Int Int Int Int Int ) Bool)
(declare-fun |Assert #2: Main.java, line 25| ( ) Bool)
(declare-fun |<Main: void main(JayArray_java_lang_String)>_Block1_8| ( Int Int Int Int Int Int Int Int Int Int Int ) Bool)
(declare-fun |CHC_COMP_FALSE| ( ) Bool)
(declare-fun |Assert #3: Main.java, line 29| ( ) Bool)
(declare-fun |<Main: void <clinit>()>_Block1_2| ( Int Int Int Int Int Int Int Int ) Bool)
(declare-fun |<JayHornAssertions: void <clinit>()>_post| ( Int Int Int Int Int ) Bool)
(declare-fun |<Main: int addition(int,int)>_Block1| ( Int Int Int Int Int Int Int Int Int Int ) Bool)
(declare-fun |<Main: void main(JayArray_java_lang_String)>_Block1_15| ( Int Int Int Int Int Int Int Int Int Int Int Int Int ) Bool)
(declare-fun |<Main: void <clinit>()>_Block0| ( Int Int Int Int Int ) Bool)
(declare-fun |<Main: int addition(int,int)>_Block1_2| ( Int Int Int Int Int Int Int Int Int Int Int Int Int ) Bool)
(declare-fun |<Main: int addition(int,int)>_Block4_3| ( Int Int Int Int Int Int Int Int ) Bool)
(declare-fun |<Main: void main(JayArray_java_lang_String)>_Block5| ( Int Int Int Int Int Int Int Int Int Int ) Bool)
(declare-fun |<Main: void main(JayArray_java_lang_String)>_Block1_4| ( Int Int Int Int Int Int ) Bool)
(declare-fun |<Main: int addition(int,int)>_Block4_1| ( Int Int Int Int Int Int ) Bool)
(declare-fun |<Main: void main(JayArray_java_lang_String)>_Block1_9| ( Int Int Int Int Int Int Int Int Int Int ) Bool)
(declare-fun |<Main: int addition(int,int)>_Block7_1| ( Int Int Int Int Int Int Int Int ) Bool)
(declare-fun |<Main: int addition(int,int)>_Block7| ( Int Int Int Int Int Int Int Int ) Bool)
(declare-fun |<Main: int addition(int,int)>_pre| ( Int Int Int ) Bool)
(declare-fun |<Main: void main(JayArray_java_lang_String)>_Block1_3| ( Int Int Int Int Int Int ) Bool)
(declare-fun |<Main: int addition(int,int)>_Block4| ( Int Int Int Int Int Int Int Int Int Int Int Int ) Bool)
(declare-fun |<Main: int addition(int,int)>_Block5| ( Int Int Int Int Int Int Int Int Int Int Int Int ) Bool)
(declare-fun |<Main: void <clinit>()>_Block1| ( Int Int Int Int Int ) Bool)
(declare-fun |<Main: int addition(int,int)>_Block4_2| ( Int Int Int Int Int Int ) Bool)
(declare-fun |<Main: void main(JayArray_java_lang_String)>_Block1_14| ( Int Int Int Int Int Int Int Int Int Int Int Int ) Bool)
(declare-fun |<Main: int addition(int,int)>_Block2| ( Int Int Int Int Int Int Int Int Int Int Int Int Int Int ) Bool)
(declare-fun |<Main: void <clinit>()>_Block1_1| ( Int Int Int Int Int ) Bool)
(declare-fun |<Main: int addition(int,int)>_Block8_1| ( Int Int Int Int Int Int Int Int ) Bool)
(declare-fun |<Main: int addition(int,int)>_Block5_3| ( Int Int Int Int Int Int Int Int ) Bool)
(declare-fun |<Main: void main(JayArray_java_lang_String)>_Block1_10| ( Int Int Int Int Int Int Int Int Int Int Int ) Bool)
(declare-fun |Assert #1: Main.java, line 24| ( ) Bool)
(declare-fun |<Main: void main(JayArray_java_lang_String)>_Block1_12| ( Int Int Int Int Int Int Int Int Int ) Bool)
(declare-fun |<Main: void main(JayArray_java_lang_String)>_Block1_5| ( Int Int Int Int Int Int Int Int Int ) Bool)
(declare-fun |<Main: void main(JayArray_java_lang_String)>_pre| ( Int Int Int Int Int ) Bool)
(declare-fun |<Main: int addition(int,int)>_Block8| ( Int Int Int Int Int Int Int ) Bool)
(declare-fun |<Main: int addition(int,int)>_Block3| ( Int Int Int Int Int Int Int Int Int ) Bool)
(declare-fun |<Main: int addition(int,int)>_Block1_3| ( Int Int Int Int Int Int Int Int Int Int Int Int Int Int ) Bool)

(assert
  (forall ( (A Int) (B Int) (C Int) (D Int) (E Int) (F Int) (G Int) (v_7 Int) (v_8 Int) (v_9 Int) ) 
    (=>
      (and
        (|<Main: int addition(int,int)>_pre| D C E)
        (and (= v_7 D) (= v_8 C) (= v_9 E))
      )
      (|<Main: int addition(int,int)>_Block1| D C E B A G F v_7 v_8 v_9)
    )
  )
)
(assert
  (forall ( (A Int) (B Int) (C Int) (D Int) (E Int) (F Int) (G Int) (v_7 Int) (v_8 Int) (v_9 Int) (v_10 Int) (v_11 Int) (v_12 Int) ) 
    (=>
      (and
        (|<Main: int addition(int,int)>_Block1| D F C A E B G v_7 v_8 v_9)
        (and (= v_7 D) (= v_8 F) (= v_9 C) (= v_10 D) (= v_11 F) (= v_12 C))
      )
      (|<Main: int addition(int,int)>_Block1_1| D F C A E B G v_10 v_11 v_12)
    )
  )
)
(assert
  (forall ( (A Int) (B Int) (C Int) (D Int) (E Int) (F Int) (G Int) (H Int) (I Int) (J Int) (K Int) (v_11 Int) (v_12 Int) (v_13 Int) (v_14 Int) ) 
    (=>
      (and
        (|<Main: int addition(int,int)>_Block1_1| K J B I F H E v_11 v_12 G)
        (and (= v_11 K) (= v_12 J) (= C 0) (= A 0) (= D 0) (= v_13 K) (= v_14 J))
      )
      (|<Main: int addition(int,int)>_Block1_2| K J B D A C I F H E v_13 v_14 G)
    )
  )
)
(assert
  (forall ( (A Int) (B Int) (C Int) (D Int) (E Int) (F Int) (G Int) (H Int) (I Int) (J Int) (K Int) (v_11 Int) (v_12 Int) (v_13 Int) (v_14 Int) (v_15 Int) ) 
    (=>
      (and
        (|<Main: int addition(int,int)>_Block1_2| D B E C J H K F A I v_11 v_12 G)
        (and (= v_11 D) (= v_12 B) (= v_13 D) (= v_14 B) (= v_15 B))
      )
      (|<Main: int addition(int,int)>_Block1_3| D B E C J H K F A I v_13 v_14 v_15 G)
    )
  )
)
(assert
  (forall ( (A Int) (B Int) (C Int) (D Int) (E Int) (F Int) (G Int) (H Int) (I Int) (J Int) (K Int) (L Int) (v_12 Int) (v_13 Int) (v_14 Int) (v_15 Int) ) 
    (=>
      (and
        (|<Main: int addition(int,int)>_Block1_3| D F E B G J L A K C v_12 v_13 H I)
        (and (= v_12 D) (= v_13 F) (not (= F 0)) (= v_14 D) (= v_15 F))
      )
      (|<Main: int addition(int,int)>_Block2| D F E B G J L A K C v_14 v_15 H I)
    )
  )
)
(assert
  (forall ( (A Int) (B Int) (C Int) (D Int) (E Int) (F Int) (G Int) (H Int) (I Int) (J Int) (K Int) (L Int) (v_12 Int) (v_13 Int) (v_14 Int) (v_15 Int) ) 
    (=>
      (and
        (|<Main: int addition(int,int)>_Block1_3| D K I L B J F H A G v_12 v_13 E C)
        (and (= v_12 D) (= v_13 K) (= K 0) (= v_14 D) (= v_15 K))
      )
      (|<Main: int addition(int,int)>_Block3| D K I L B J v_14 v_15 C)
    )
  )
)
(assert
  (forall ( (A Int) (B Int) (C Int) (D Int) (E Int) (F Int) (G Int) (H Int) (I Int) (J Int) (K Int) (L Int) (v_12 Int) (v_13 Int) (v_14 Int) (v_15 Int) ) 
    (=>
      (and
        (|<Main: int addition(int,int)>_Block2| B A L K H D J G I F v_12 v_13 E C)
        (and (= v_12 B) (= v_13 A) (<= E 0) (= v_14 B) (= v_15 A))
      )
      (|<Main: int addition(int,int)>_Block4| B A L K H D J G v_14 v_15 E C)
    )
  )
)
(assert
  (forall ( (A Int) (B Int) (C Int) (D Int) (E Int) (F Int) (G Int) (H Int) (I Int) (J Int) (K Int) (L Int) (v_12 Int) (v_13 Int) (v_14 Int) (v_15 Int) ) 
    (=>
      (and
        (|<Main: int addition(int,int)>_Block2| D I G B E J H C A F v_12 v_13 K L)
        (and (= v_12 D) (= v_13 I) (not (<= K 0)) (= v_14 D) (= v_15 I))
      )
      (|<Main: int addition(int,int)>_Block5| D I G B E J A F v_14 v_15 K L)
    )
  )
)
(assert
  (forall ( (A Int) (B Int) (C Int) (D Int) (E Int) (F Int) (G Int) (v_7 Int) (v_8 Int) (v_9 Int) ) 
    (=>
      (and
        (|<Main: int addition(int,int)>_Block3| D F E A B G v_7 v_8 C)
        (and (= v_7 D) (= v_8 F) (= v_9 D))
      )
      (|<Main: int addition(int,int)>_Block3_1| D F E A B G v_9 C)
    )
  )
)
(assert
  (forall ( (A Int) (B Int) (C Int) (D Int) (E Int) (F Int) (G Int) (H Int) ) 
    (=>
      (and
        (|<Main: int addition(int,int)>_Block3_1| B A G H C F E D)
        true
      )
      (|<Main: int addition(int,int)>_Block0| B A G H C F E D)
    )
  )
)
(assert
  (forall ( (A Int) (B Int) (C Int) (D Int) (E Int) (F Int) (G Int) (H Int) ) 
    (=>
      (and
        (|<Main: int addition(int,int)>_Block8_1| D F A C B H G E)
        true
      )
      (|<Main: int addition(int,int)>_Block0| D F A C B H G E)
    )
  )
)
(assert
  (forall ( (A Int) (B Int) (C Int) (D Int) (E Int) (F Int) (G Int) (H Int) ) 
    (=>
      (and
        (|<Main: int addition(int,int)>_Block9_1| C H D A F B E G)
        true
      )
      (|<Main: int addition(int,int)>_Block0| C H D A F B E G)
    )
  )
)
(assert
  (forall ( (A Int) (B Int) (C Int) (D Int) (E Int) (F Int) (G Int) (H Int) ) 
    (=>
      (and
        (|<Main: int addition(int,int)>_Block6_1| F E B C H A D G)
        true
      )
      (|<Main: int addition(int,int)>_Block0| F E B C H A D G)
    )
  )
)
(assert
  (forall ( (A Int) (B Int) (C Int) (D Int) (E Int) (F Int) (G Int) (H Int) ) 
    (=>
      (and
        (|<Main: int addition(int,int)>_Block7_1| G A F B C D H E)
        true
      )
      (|<Main: int addition(int,int)>_Block0| G A F B C D H E)
    )
  )
)
(assert
  (forall ( (A Int) (B Int) (C Int) (D Int) (E Int) (F Int) (G Int) (H Int) (I Int) (J Int) (K Int) (v_11 Int) (v_12 Int) (v_13 Int) ) 
    (=>
      (and
        (|<Main: int addition(int,int)>_Block4| A J G C I F H D v_11 v_12 E B)
        (and (= v_11 A) (= v_12 J) (= K (+ (- 1) A)) (= v_13 J))
      )
      (|<Main: int addition(int,int)>_Block4_1| A J G K v_13 B)
    )
  )
)
(assert
  (forall ( (A Int) (B Int) (C Int) (D Int) (E Int) (F Int) (v_6 Int) ) 
    (=>
      (and
        (|<Main: int addition(int,int)>_Block4_1| B D C A v_6 E)
        (and (= v_6 D) (= F (+ 1 D)))
      )
      (|<Main: int addition(int,int)>_Block4_2| B D C F A E)
    )
  )
)
(assert
  (forall ( (A Int) (B Int) (C Int) (D Int) (E Int) (F Int) ) 
    (=>
      (and
        (|<Main: int addition(int,int)>_Block4_2| E D A F C B)
        true
      )
      (|<Main: int addition(int,int)>_pre| C F B)
    )
  )
)
(assert
  (forall ( (A Int) (B Int) (C Int) (D Int) (E Int) (F Int) ) 
    (=>
      (and
        (|<Main: int addition(int,int)>_Block5_2| D E F A C B)
        true
      )
      (|<Main: int addition(int,int)>_pre| C A B)
    )
  )
)
(assert
  (forall ( (A Int) (B Int) (C Int) (D Int) (E Int) (F Int) (G Int) (H Int) ) 
    (=>
      (and
        (|<Main: void main(JayArray_java_lang_String)>_Block1_13| G E C B D F H A)
        true
      )
      (|<Main: int addition(int,int)>_pre| F H A)
    )
  )
)
(assert
  (forall ( (A Int) (B Int) (C Int) (D Int) (E Int) (F Int) (G Int) (H Int) (I Int) (J Int) (K Int) ) 
    (=>
      (and
        (|<Main: int addition(int,int)>_Block4_2| B K J E I C)
        (|<Main: int addition(int,int)>_post| I E C H A G D F)
        true
      )
      (|<Main: int addition(int,int)>_Block4_3| B K J H A G D F)
    )
  )
)
(assert
  (forall ( (A Int) (B Int) (C Int) (D Int) (E Int) (F Int) (G Int) (H Int) ) 
    (=>
      (and
        (|<Main: int addition(int,int)>_Block4_3| D B C A H E G F)
        (not (= A 0))
      )
      (|<Main: int addition(int,int)>_Block8| D B C A H E F)
    )
  )
)
(assert
  (forall ( (A Int) (B Int) (C Int) (D Int) (E Int) (F Int) (G Int) (H Int) ) 
    (=>
      (and
        (|<Main: int addition(int,int)>_Block4_3| C D A H F B G E)
        (= H 0)
      )
      (|<Main: int addition(int,int)>_Block9| C D A H F B G E)
    )
  )
)
(assert
  (forall ( (A Int) (B Int) (C Int) (D Int) (E Int) (F Int) (G Int) (H Int) (I Int) (J Int) (K Int) (v_11 Int) (v_12 Int) (v_13 Int) ) 
    (=>
      (and
        (|<Main: int addition(int,int)>_Block5| F G J D C B K I v_11 v_12 A E)
        (and (= v_11 F) (= v_12 G) (= H (+ 1 F)) (= v_13 G))
      )
      (|<Main: int addition(int,int)>_Block5_1| F G J H v_13 E)
    )
  )
)
(assert
  (forall ( (A Int) (B Int) (C Int) (D Int) (E Int) (F Int) (v_6 Int) ) 
    (=>
      (and
        (|<Main: int addition(int,int)>_Block5_1| B E F A v_6 C)
        (and (= v_6 E) (= D (+ (- 1) E)))
      )
      (|<Main: int addition(int,int)>_Block5_2| B E F D A C)
    )
  )
)
(assert
  (forall ( (A Int) (B Int) (C Int) (D Int) (E Int) (F Int) (G Int) (H Int) (I Int) (J Int) (K Int) ) 
    (=>
      (and
        (|<Main: int addition(int,int)>_Block5_2| D J H F E B)
        (|<Main: int addition(int,int)>_post| E F B C I G K A)
        true
      )
      (|<Main: int addition(int,int)>_Block5_3| D J H C I G K A)
    )
  )
)
(assert
  (forall ( (A Int) (B Int) (C Int) (D Int) (E Int) (F Int) (G Int) (H Int) ) 
    (=>
      (and
        (|<Main: int addition(int,int)>_Block5_3| D A H F E C B G)
        (not (= F 0))
      )
      (|<Main: int addition(int,int)>_Block6| D A H F E C G)
    )
  )
)
(assert
  (forall ( (A Int) (B Int) (C Int) (D Int) (E Int) (F Int) (G Int) (H Int) ) 
    (=>
      (and
        (|<Main: int addition(int,int)>_Block5_3| G D F E A B H C)
        (= E 0)
      )
      (|<Main: int addition(int,int)>_Block7| G D F E A B H C)
    )
  )
)
(assert
  (forall ( (A Int) (B Int) (C Int) (D Int) (E Int) (F Int) (G Int) (H Int) ) 
    (=>
      (and
        (|<Main: int addition(int,int)>_Block0| B G H A D F C E)
        true
      )
      (|<Main: int addition(int,int)>_post| B G H A D F C E)
    )
  )
)
(assert
  (forall ( (A Int) (B Int) (C Int) (D Int) (E Int) (F Int) (G Int) (H Int) ) 
    (=>
      (and
        (|<Main: int addition(int,int)>_Block8| C F E G B D H)
        (= A 0)
      )
      (|<Main: int addition(int,int)>_Block8_1| C F E G B D A H)
    )
  )
)
(assert
  (forall ( (A Int) (B Int) (C Int) (D Int) (E Int) (F Int) (G Int) (H Int) ) 
    (=>
      (and
        (|<Main: int addition(int,int)>_Block9| D C A G H B E F)
        true
      )
      (|<Main: int addition(int,int)>_Block9_1| D C A G H B E F)
    )
  )
)
(assert
  (forall ( (A Int) (B Int) (C Int) (D Int) (E Int) (F Int) (G Int) (H Int) ) 
    (=>
      (and
        (|<Main: int addition(int,int)>_Block6| E B A C F D G)
        (= H 0)
      )
      (|<Main: int addition(int,int)>_Block6_1| E B A C F D H G)
    )
  )
)
(assert
  (forall ( (A Int) (B Int) (C Int) (D Int) (E Int) (F Int) (G Int) (H Int) ) 
    (=>
      (and
        (|<Main: int addition(int,int)>_Block7| D G B A C F H E)
        true
      )
      (|<Main: int addition(int,int)>_Block7_1| D G B A C F H E)
    )
  )
)
(assert
  (forall ( (A Int) (B Int) (C Int) (D Int) (E Int) (F Int) (G Int) (H Int) (I Int) (J Int) (K Int) (L Int) (M Int) (N Int) (O Int) (P Int) (Q Int) (R Int) (S Int) (v_19 Int) (v_20 Int) (v_21 Int) (v_22 Int) ) 
    (=>
      (and
        (|<Main: void main(JayArray_java_lang_String)>_pre| Q K R F I)
        (and (= v_19 Q) (= v_20 K) (= v_21 R) (= v_22 F))
      )
      (|<Main: void main(JayArray_java_lang_String)>_Block1|
  Q
  K
  R
  F
  I
  A
  B
  H
  D
  E
  L
  v_19
  v_20
  v_21
  v_22
  C
  N
  P
  J
  S
  M
  O
  G)
    )
  )
)
(assert
  (forall ( (A Int) (B Int) (C Int) (D Int) (E Int) (F Int) (G Int) (H Int) (I Int) (J Int) (K Int) (L Int) (M Int) (N Int) (O Int) (P Int) (Q Int) (R Int) (S Int) (T Int) (v_20 Int) (v_21 Int) (v_22 Int) (v_23 Int) (v_24 Int) (v_25 Int) (v_26 Int) (v_27 Int) ) 
    (=>
      (and
        (|<Main: void main(JayArray_java_lang_String)>_Block1|
  H
  Q
  K
  R
  A
  E
  P
  J
  G
  I
  D
  v_20
  v_21
  v_22
  v_23
  N
  C
  M
  B
  L
  S
  T
  F)
        (and (= v_20 H)
     (= v_21 Q)
     (= v_22 K)
     (= v_23 R)
     (= O 1)
     (= v_24 H)
     (= v_25 Q)
     (= v_26 K)
     (= v_27 R))
      )
      (|<Main: void main(JayArray_java_lang_String)>_Block1_1|
  H
  Q
  K
  R
  A
  v_24
  v_25
  v_26
  v_27
  N
  O
  L
  S
  T
  F)
    )
  )
)
(assert
  (forall ( (A Int) (B Int) (C Int) (D Int) (E Int) (F Int) (G Int) (H Int) (I Int) (J Int) (K Int) (v_11 Int) (v_12 Int) (v_13 Int) (v_14 Int) (v_15 Int) (v_16 Int) (v_17 Int) (v_18 Int) ) 
    (=>
      (and
        (|<Main: void main(JayArray_java_lang_String)>_Block1_1|
  E
  K
  C
  B
  A
  v_11
  v_12
  v_13
  v_14
  D
  F
  J
  I
  H
  G)
        (and (= v_11 E)
     (= v_12 K)
     (= v_13 C)
     (= v_14 B)
     (= E 1)
     (<= 0 B)
     (= K 137)
     (= v_15 E)
     (= v_16 K)
     (= v_17 C)
     (= v_18 B))
      )
      (|<Main: void main(JayArray_java_lang_String)>_Block1_2|
  E
  K
  C
  B
  A
  v_15
  v_16
  v_17
  v_18
  F
  J
  I
  H
  G)
    )
  )
)
(assert
  (forall ( (A Int) (B Int) (C Int) (D Int) (E Int) (F Int) (G Int) (H Int) (I Int) (J Int) (v_10 Int) (v_11 Int) (v_12 Int) (v_13 Int) ) 
    (=>
      (and
        (|<Main: void main(JayArray_java_lang_String)>_Block1_2|
  I
  D
  H
  F
  J
  v_10
  v_11
  v_12
  v_13
  C
  A
  G
  B
  E)
        (and (= v_10 I) (= v_11 D) (= v_12 H) (= v_13 F))
      )
      (|<Main: void main(JayArray_java_lang_String)>_Block1_3| I D H F J C)
    )
  )
)
(assert
  (forall ( (A Int) (B Int) (C Int) (D Int) (E Int) (F Int) ) 
    (=>
      (and
        (|<Main: void main(JayArray_java_lang_String)>_Block1_3| C F E D B A)
        true
      )
      (|<Main: void <clinit>()>_pre| A)
    )
  )
)
(assert
  (forall ( (A Int) (B Int) (C Int) (D Int) (E Int) (F Int) (G Int) (H Int) (I Int) (J Int) ) 
    (=>
      (and
        (|<Main: void main(JayArray_java_lang_String)>_Block1_3| F I H E J C)
        (|<Main: void <clinit>()>_post| C G D B A)
        true
      )
      (|<Main: void main(JayArray_java_lang_String)>_Block1_4| F I H E J A)
    )
  )
)
(assert
  (forall ( (A Int) (B Int) (C Int) (D Int) (E Int) (F Int) ) 
    (=>
      (and
        (|<Main: void main(JayArray_java_lang_String)>_Block1_4| B A F D C E)
        true
      )
      (|<JayHornAssertions: void <clinit>()>_pre| E)
    )
  )
)
(assert
  (forall ( (A Int) (B Int) (C Int) (D Int) (E Int) (F Int) (G Int) (H Int) (I Int) (J Int) ) 
    (=>
      (and
        (|<Main: void main(JayArray_java_lang_String)>_Block1_4| E F H G A B)
        (|<JayHornAssertions: void <clinit>()>_post| B D J I C)
        true
      )
      (|<Main: void main(JayArray_java_lang_String)>_Block1_5| E F H G A D J I C)
    )
  )
)
(assert
  (forall ( (A Int) (B Int) (C Int) (D Int) (E Int) (F Int) (G Int) (H Int) (I Int) (J Int) ) 
    (=>
      (and
        (|<Main: void main(JayArray_java_lang_String)>_Block1_5| C J I H G D F A E)
        true
      )
      (|<Main: void main(JayArray_java_lang_String)>_Block1_6| C J I H G D F A B E)
    )
  )
)
(assert
  (forall ( (A Int) (B Int) (C Int) (D Int) (E Int) (F Int) (G Int) (H Int) (I Int) (J Int) ) 
    (=>
      (and
        (|<Main: void main(JayArray_java_lang_String)>_Block1_6| I H G F E D B C A J)
        (and (<= A 2147483647) (<= (- 2147483648) A))
      )
      (|<Main: void main(JayArray_java_lang_String)>_Block1_7| I H G F E D B C A J)
    )
  )
)
(assert
  (forall ( (A Int) (B Int) (C Int) (D Int) (E Int) (F Int) (G Int) (H Int) (I Int) (J Int) (K Int) ) 
    (=>
      (and
        (|<Main: void main(JayArray_java_lang_String)>_Block1_7| A C K B J F I G E D)
        (or (and (= F 0) (= H 0)) (and (not (= F 0)) (= H 1)))
      )
      (|<Main: void main(JayArray_java_lang_String)>_Block1_8| A C K B J H F I G E D)
    )
  )
)
(assert
  (forall ( (A Int) (B Int) (C Int) (D Int) (E Int) (F Int) (G Int) (H Int) (I Int) (J Int) (K Int) ) 
    (=>
      (and
        (|<Main: void main(JayArray_java_lang_String)>_Block1_8| F H J I E A D G C B K)
        true
      )
      (|<Main: void main(JayArray_java_lang_String)>_Block1_9| F H J I E D G C B K)
    )
  )
)
(assert
  (forall ( (A Int) (B Int) (C Int) (D Int) (E Int) (F Int) (G Int) (H Int) (I Int) (J Int) (K Int) ) 
    (=>
      (and
        (|<Main: void main(JayArray_java_lang_String)>_Block1_8| J F K E B A D G I C H)
        (not (= A 0))
      )
      |Assert #0: Main.java, line 23|
    )
  )
)
(assert
  (forall ( (A Int) (B Int) (C Int) (D Int) (E Int) (F Int) (G Int) (H Int) (I Int) (J Int) (K Int) ) 
    (=>
      (and
        (|<Main: void main(JayArray_java_lang_String)>_Block1_9| D K I J B H F G E A)
        true
      )
      (|<Main: void main(JayArray_java_lang_String)>_Block1_10| D K I J B H F G E C A)
    )
  )
)
(assert
  (forall ( (A Int) (B Int) (C Int) (D Int) (E Int) (F Int) (G Int) (H Int) (I Int) (J Int) (K Int) ) 
    (=>
      (and
        (|<Main: void main(JayArray_java_lang_String)>_Block1_10| F B D E J G C H K I A)
        (and (<= I 2147483647) (<= (- 2147483648) I))
      )
      (|<Main: void main(JayArray_java_lang_String)>_Block1_11| F B D E J G C H K I A)
    )
  )
)
(assert
  (forall ( (A Int) (B Int) (C Int) (D Int) (E Int) (F Int) (G Int) (H Int) (I Int) (J Int) (K Int) (L Int) ) 
    (=>
      (and
        (|<Main: void main(JayArray_java_lang_String)>_Block1_11| H L E B K C G A D I J)
        (or (and (= F 0) (= C 0)) (and (= F 1) (not (= C 0))))
      )
      (|<Main: void main(JayArray_java_lang_String)>_Block1_12| H L E B K F D I J)
    )
  )
)
(assert
  (forall ( (A Int) (B Int) (C Int) (D Int) (E Int) (F Int) (G Int) (H Int) (I Int) ) 
    (=>
      (and
        (|<Main: void main(JayArray_java_lang_String)>_Block1_12| G H D A B I C E F)
        true
      )
      (|<Main: void main(JayArray_java_lang_String)>_Block1_13| G H D A B C E F)
    )
  )
)
(assert
  (forall ( (A Int) (B Int) (C Int) (D Int) (E Int) (F Int) (G Int) (H Int) (I Int) ) 
    (=>
      (and
        (|<Main: void main(JayArray_java_lang_String)>_Block1_12| I H A D F G C E B)
        (not (= G 0))
      )
      |Assert #1: Main.java, line 24|
    )
  )
)
(assert
  (forall ( (A Int) (B Int) (C Int) (D Int) (E Int) (F Int) (G Int) (H Int) (I Int) (J Int) (K Int) (L Int) (M Int) ) 
    (=>
      (and
        (|<Main: void main(JayArray_java_lang_String)>_Block1_13| J M I H A B F D)
        (|<Main: int addition(int,int)>_post| B F D K L E G C)
        true
      )
      (|<Main: void main(JayArray_java_lang_String)>_Block1_14|
  J
  M
  I
  H
  A
  K
  L
  E
  B
  F
  G
  C)
    )
  )
)
(assert
  (forall ( (A Int) (B Int) (C Int) (D Int) (E Int) (F Int) (G Int) (H Int) (I Int) (J Int) (K Int) (L Int) (M Int) ) 
    (=>
      (and
        (|<Main: void main(JayArray_java_lang_String)>_Block1_14|
  L
  I
  B
  A
  H
  J
  G
  E
  K
  D
  F
  M)
        (or (and (= J 0) (= C 0)) (and (not (= J 0)) (= C 1)))
      )
      (|<Main: void main(JayArray_java_lang_String)>_Block1_15|
  L
  I
  B
  A
  H
  C
  J
  G
  E
  K
  D
  F
  M)
    )
  )
)
(assert
  (forall ( (A Int) (B Int) (C Int) (D Int) (E Int) (F Int) (G Int) (H Int) (I Int) (J Int) (K Int) (L Int) (M Int) ) 
    (=>
      (and
        (|<Main: void main(JayArray_java_lang_String)>_Block1_15|
  L
  M
  B
  F
  E
  D
  K
  H
  C
  I
  A
  J
  G)
        true
      )
      (|<Main: void main(JayArray_java_lang_String)>_Block1_16|
  L
  M
  B
  F
  E
  K
  H
  C
  I
  A
  J
  G)
    )
  )
)
(assert
  (forall ( (A Int) (B Int) (C Int) (D Int) (E Int) (F Int) (G Int) (H Int) (I Int) (J Int) (K Int) (L Int) (M Int) ) 
    (=>
      (and
        (|<Main: void main(JayArray_java_lang_String)>_Block1_15|
  L
  E
  H
  B
  F
  C
  D
  I
  J
  A
  M
  K
  G)
        (not (= C 0))
      )
      |Assert #2: Main.java, line 25|
    )
  )
)
(assert
  (forall ( (A Int) (B Int) (C Int) (D Int) (E Int) (F Int) (G Int) (H Int) (I Int) (J Int) (K Int) (L Int) ) 
    (=>
      (and
        (|<Main: void main(JayArray_java_lang_String)>_Block1_16|
  A
  H
  J
  G
  B
  K
  D
  F
  E
  C
  L
  I)
        (not (<= E 99))
      )
      (|<Main: void main(JayArray_java_lang_String)>_Block3| A H J G B K D F E C L I)
    )
  )
)
(assert
  (forall ( (A Int) (B Int) (C Int) (D Int) (E Int) (F Int) (G Int) (H Int) (I Int) (J Int) (K Int) (L Int) ) 
    (=>
      (and
        (|<Main: void main(JayArray_java_lang_String)>_Block3| J I E G B F C D L K H A)
        (not (<= K 99))
      )
      (|<Main: void main(JayArray_java_lang_String)>_Block4| J I E G B F C D L K H A)
    )
  )
)
(assert
  (forall ( (A Int) (B Int) (C Int) (D Int) (E Int) (F Int) (G Int) (H Int) (I Int) (J Int) (K Int) (L Int) ) 
    (=>
      (and
        (|<Main: void main(JayArray_java_lang_String)>_Block4| B I H K F G C D A L E J)
        (<= E 199)
      )
      (|<Main: void main(JayArray_java_lang_String)>_Block5| B I H K F G C D E J)
    )
  )
)
(assert
  (forall ( (A Int) (B Int) (C Int) (D Int) (E Int) (F Int) (G Int) (H Int) (I Int) (J Int) ) 
    (=>
      (and
        (|<Main: void main(JayArray_java_lang_String)>_Block5| G J C D B E H A F I)
        true
      )
      |Assert #3: Main.java, line 29|
    )
  )
)
(assert
  (forall ( (A Int) (B Int) (C Int) (D Int) (v_4 Int) ) 
    (=>
      (and
        (|<Main: void <clinit>()>_pre| D)
        (= v_4 D)
      )
      (|<Main: void <clinit>()>_Block1| D C B A v_4)
    )
  )
)
(assert
  (forall ( (A Int) (B Int) (C Int) (D Int) (v_4 Int) (v_5 Int) ) 
    (=>
      (and
        (|<Main: void <clinit>()>_Block1| D B C A v_4)
        (and (= v_4 D) (= v_5 D))
      )
      (|<Main: void <clinit>()>_Block1_1| D B C A v_5)
    )
  )
)
(assert
  (forall ( (A Int) (B Int) (C Int) (D Int) (E Int) (F Int) (G Int) (H Int) ) 
    (=>
      (and
        (|<Main: void <clinit>()>_Block1_1| H A F D C)
        (and (= E 0) (= B 0) (= G 0))
      )
      (|<Main: void <clinit>()>_Block1_2| H A F D G B E C)
    )
  )
)
(assert
  (forall ( (A Int) (B Int) (C Int) (D Int) (E Int) (F Int) (G Int) (H Int) ) 
    (=>
      (and
        (|<Main: void <clinit>()>_Block1_2| D C B H A G F E)
        true
      )
      (|<Main: void <clinit>()>_Block1_3| D A G F E)
    )
  )
)
(assert
  (forall ( (A Int) (B Int) (C Int) (D Int) (E Int) ) 
    (=>
      (and
        (|<Main: void <clinit>()>_Block1_3| C E B A D)
        true
      )
      (|<Main: void <clinit>()>_Block0| C E B A D)
    )
  )
)
(assert
  (forall ( (A Int) (B Int) (C Int) (D Int) (E Int) ) 
    (=>
      (and
        (|<Main: void <clinit>()>_Block0| B D A C E)
        true
      )
      (|<Main: void <clinit>()>_post| B D A C E)
    )
  )
)
(assert
  (forall ( (A Int) (v_1 Int) ) 
    (=>
      (and
        (|<JayHornAssertions: void <clinit>()>_pre| A)
        (= v_1 A)
      )
      (|<JayHornAssertions: void <clinit>()>_Block1| A v_1)
    )
  )
)
(assert
  (forall ( (A Int) (v_1 Int) (v_2 Int) ) 
    (=>
      (and
        (|<JayHornAssertions: void <clinit>()>_Block1| A v_1)
        (and (= v_1 A) (= v_2 A))
      )
      (|<JayHornAssertions: void <clinit>()>_Block1_1| A v_2)
    )
  )
)
(assert
  (forall ( (A Int) (B Int) (C Int) (D Int) (E Int) ) 
    (=>
      (and
        (|<JayHornAssertions: void <clinit>()>_Block1_1| E B)
        (and (= C 0) (= A 0) (= D 0))
      )
      (|<JayHornAssertions: void <clinit>()>_Block1_2| E D A C B)
    )
  )
)
(assert
  (forall ( (A Int) (B Int) (C Int) (D Int) (E Int) ) 
    (=>
      (and
        (|<JayHornAssertions: void <clinit>()>_Block1_2| D B A C E)
        true
      )
      (|<JayHornAssertions: void <clinit>()>_Block0| D B A C E)
    )
  )
)
(assert
  (forall ( (A Int) (B Int) (C Int) (D Int) (E Int) ) 
    (=>
      (and
        (|<JayHornAssertions: void <clinit>()>_Block0| D A C B E)
        true
      )
      (|<JayHornAssertions: void <clinit>()>_post| D A C B E)
    )
  )
)
(assert
  (forall ( (A Int) (B Int) (C Int) (D Int) (E Int) ) 
    (=>
      (and
        true
      )
      (|<Main: void main(JayArray_java_lang_String)>_pre| E A D C B)
    )
  )
)
(assert
  (forall ( (CHC_COMP_UNUSED Bool) ) 
    (=>
      (and
        |Assert #0: Main.java, line 23|
        true
      )
      CHC_COMP_FALSE
    )
  )
)
(assert
  (forall ( (CHC_COMP_UNUSED Bool) ) 
    (=>
      (and
        |Assert #1: Main.java, line 24|
        true
      )
      CHC_COMP_FALSE
    )
  )
)
(assert
  (forall ( (CHC_COMP_UNUSED Bool) ) 
    (=>
      (and
        |Assert #2: Main.java, line 25|
        true
      )
      CHC_COMP_FALSE
    )
  )
)
(assert
  (forall ( (CHC_COMP_UNUSED Bool) ) 
    (=>
      (and
        |Assert #3: Main.java, line 29|
        true
      )
      CHC_COMP_FALSE
    )
  )
)
(assert
  (forall ( (CHC_COMP_UNUSED Bool) ) 
    (=>
      (and
        CHC_COMP_FALSE
      )
      false
    )
  )
)

(check-sat)
(exit)
